1 1 -2 0
1 -3 1 0
1 -4 -5 0
1 -4 6 0
1 -4 7 0
1 4 -8 0
1 -4 9 0
1 5 -10 0
1 5 -6 0
1 -5 7 0
1 -5 -4 0
1 -5 9 0
1 -5 -2 0
1 7 11 0
1 7 12 0
1 7 -5 0
1 -7 -13 0
1 -7 14 0
1 -7 -15 0
1 -7 -4 0
1 -2 -16 0
1 2 5 0
1 -2 -7 0
1 -6 -17 0
1 6 -18 0
1 -6 -19 0
1 6 -9 0
1 -9 -11 0
1 9 20 0
1 9 5 0
1 -9 -6 0
1 -9 19 0
1 9 21 0
1 9 1 0
1 -15 22 0
1 15 10 0
1 15 -12 0
1 -15 21 0
1 12 22 0
1 12 10 0
1 -12 -23 0
1 14 16 0
1 14 23 0
1 14 -24 0
1 14 2 0
1 16 -25 0
1 -16 20 0
1 -16 -14 0
1 16 -2 0
1 -23 26 0
1 23 27 0
1 -23 -10 0
1 23 -28 0
1 10 -12 0
1 -10 -5 0
1 -10 28 0
1 10 -14 0
1 -10 15 0
1 -10 -4 0
1 8 -11 0
1 8 -5 0
1 8 29 0
1 -22 11 0
1 -22 29 0
1 -22 14 0
1 -22 -15 0
1 -30 27 0
1 -30 -10 0
1 -30 25 0
1 30 31 0
1 30 -19 0
1 27 10 0
1 -27 -31 0
1 27 32 0
1 28 -10 0
1 -28 -25 0
1 28 33 0
1 28 24 0
1 26 -24 0
1 -24 -31 0
1 -24 28 0
1 24 30 0
1 31 16 0
1 -31 -28 0
1 -31 -30 0
1 32 -26 0
1 32 -14 0
1 -32 34 0
1 32 -35 0
1 -25 29 0
1 -25 28 0
1 -25 35 0
1 21 -36 0
1 -21 6 0
1 21 37 0
1 21 -15 0
1 21 9 0
1 -17 36 0
1 -17 37 0
1 -17 21 0
1 -38 -6 0
1 -38 -39 0
1 -38 14 0
1 38 40 0
1 20 37 0
1 20 38 0
1 -20 -41 0
1 -42 -37 0
1 42 20 0
1 42 21 0
1 37 11 0
1 37 21 0
1 36 17 0
1 36 39 0
1 36 -21 0
1 -39 -20 0
1 -39 -21 0
1 -19 11 0
1 19 43 0
1 19 8 0
1 -19 30 0
1 19 -9 0
1 11 -22 0
1 -11 -43 0
1 -11 -6 0
1 -33 -44 0
1 33 -43 0
1 33 -18 0
1 33 13 0
1 33 8 0
1 -33 28 0
1 45 -42 0
1 -45 -18 0
1 45 -13 0
1 45 -8 0
1 45 -37 0
1 -43 -11 0
1 43 46 0
1 43 29 0
1 43 -33 0
1 43 -34 0
1 40 45 0
1 40 -20 0
1 -40 -46 0
1 40 29 0
1 -40 33 0
1 40 34 0
1 -47 11 0
1 47 -20 0
1 -47 19 0
1 41 -20 0
1 -41 38 0
1 29 -44 0
1 -29 10 0
1 29 -25 0
1 -29 -8 0
1 -29 -23 0
1 -29 32 0
1 -29 -40 0
1 29 -48 0
1 -29 -35 0
1 -35 -44 0
1 -35 10 0
1 -35 13 0
1 35 32 0
1 35 48 0
1 -46 -43 0
1 46 40 0
1 34 -46 0
1 -34 -13 0
1 34 32 0
1 -34 -40 0
1 -13 44 0
1 -13 45 0
1 -13 7 0
1 -13 -33 0
1 44 35 0
1 -18 -45 0
1 18 -33 0
1 18 48 0
1 -48 -46 0
1 48 18 0
1 48 33 0
1 48 -9 0
